This is Ipopt version 3.10.1, running with linear solver mumps.

Number of nonzeros in equality constraint Jacobian...:      236
Number of nonzeros in inequality constraint Jacobian.:        0
Number of nonzeros in Lagrangian Hessian.............:     5892

Total number of variables............................:      120
                     variables with only lower bounds:        0
                variables with lower and upper bounds:      120
                     variables with only upper bounds:        0
Total number of equality constraints.................:       59
Total number of inequality constraints...............:        0
        inequality constraints with only lower bounds:        0
   inequality constraints with lower and upper bounds:        0
        inequality constraints with only upper bounds:        0

iter    objective    inf_pr   inf_du lg(mu)  ||d||  lg(rg) alpha_du alpha_pr  ls
   0 -2.8293220e-03 2.00e-02 1.82e-03  -1.0 0.00e+00    -  0.00e+00 0.00e+00   0
   1 -3.1548360e-03 4.25e-10 6.76e-03  -1.7 3.11e-02    -  9.68e-01 1.00e+00h  1
   2 -3.2121408e-03 4.44e-16 2.83e-03  -2.5 3.61e-02    -  9.87e-01 1.00e+00f  1
   3 -3.9074047e-03 9.71e-12 1.40e-03  -3.8 4.18e-02    -  8.87e-01 1.00e+00f  1
   4 -9.6988912e-03 4.32e-12 4.30e-03  -5.7 1.91e-01  -2.0 5.08e-01 6.36e-01f  1
   5 -1.8428660e-02 5.66e-12 8.50e-03  -5.7 1.09e+00  -1.6 2.31e-01 6.41e-02f  1
   6 -2.9765110e-02 3.98e-12 1.35e-02  -5.7 1.77e-01  -1.1 7.13e-01 2.97e-01f  1
   7 -4.2388094e-02 1.79e-12 1.77e-02  -5.7 7.33e-02  -0.7 9.54e-01 5.51e-01f  1
   8 -2.1710744e-02 6.82e-13 7.89e-02  -5.7 5.62e-01  -1.2 6.16e-02 6.19e-01h  1
   9 -2.1985183e-02 1.47e-12 7.57e-02  -5.7 2.98e-01  -0.8 6.32e-01 3.94e-02f  4
iter    objective    inf_pr   inf_du lg(mu)  ||d||  lg(rg) alpha_du alpha_pr  ls
  10 -2.2769623e-02 1.86e-12 7.56e-02  -5.7 4.17e+00  -1.3 8.14e-02 1.32e-03f  5
  11 -3.7174298e-02 1.11e-15 1.51e-02  -5.7 6.94e-02  -0.8 9.59e-01 1.00e+00f  1
  12 -4.7039327e-02 3.33e-16 1.77e-02  -5.7 4.15e-02  -0.4 1.00e+00 7.39e-01f  1
  13 -5.1961017e-02 2.27e-12 1.17e-01  -5.7 7.98e-01  -0.9 5.51e-01 2.24e-02f  1
  14 -5.4343510e-02 3.17e-12 2.14e-02  -5.7 6.72e-02  -0.4 1.00e+00 1.23e-01f  1
  15 -5.9928105e-02 5.20e-12 1.05e-01  -5.7 6.65e-01  -0.9 4.86e-01 2.79e-02f  1
  16 -6.7724938e-02 6.20e-12 2.15e-02  -5.7 6.53e-02  -0.5 1.00e+00 3.63e-01f  1
  17 -7.3932282e-02 8.60e-12 1.17e-01  -5.7 2.47e+00  -1.0 1.32e-01 8.18e-03f  1
  18 -8.6053659e-02 4.94e-12 2.32e-02  -5.7 8.24e-02  -0.6 1.00e+00 4.25e-01f  1
  19 -8.7695350e-02 4.73e-12 2.66e-02  -5.7 2.19e+00  -1.0 3.76e-02 4.30e-02h  1
iter    objective    inf_pr   inf_du lg(mu)  ||d||  lg(rg) alpha_du alpha_pr  ls
  20 -9.1623777e-02 4.20e-12 4.40e-02  -5.7 1.01e-01  -0.6 1.00e+00 1.13e-01f  1
  21 -9.3202701e-02 5.05e-12 2.64e-02  -5.7 2.91e-02  -0.2 1.00e+00 2.20e-01f  1
  22 -1.0137279e-01 3.71e-12 3.07e-02  -5.7 1.25e-01  -0.7 9.09e-01 2.66e-01f  1
  23 -1.0413752e-01 2.62e-12 2.73e-02  -5.7 3.68e-02  -0.2 1.00e+00 2.94e-01f  1
  24 -1.2535596e-01 7.97e-12 3.19e-02  -5.7 2.02e-01  -0.7 8.43e-02 4.02e-01f  1
  25 -1.2757674e-01 7.65e-12 1.10e-01  -5.7 4.78e-02  -0.3 1.00e+00 1.89e-01f  1
  26 -1.4080912e-01 6.80e-12 1.27e-01  -5.7 3.68e-01  -0.8 8.66e-01 1.12e-01f  1
  27 -1.5687619e-01 3.50e-12 3.50e-02  -5.7 7.84e-02  -0.3 1.00e+00 4.85e-01f  1
  28 -1.5877250e-01 3.50e-12 8.49e-02  -5.7 3.31e+00  -0.8 4.03e-02 1.37e-03f  1
  29 -1.6266672e-01 3.10e-12 5.92e-02  -5.7 8.08e-02  -0.4 6.37e-01 1.14e-01f  1
iter    objective    inf_pr   inf_du lg(mu)  ||d||  lg(rg) alpha_du alpha_pr  ls
  30 -1.6836850e-01 8.26e-12 2.51e-02  -5.7 2.30e-02   0.0 1.00e+00 5.86e-01f  1
  31 -1.7587117e-01 9.47e-12 2.59e-02  -5.7 9.30e-02  -0.4 4.03e-01 1.80e-01f  1
  32 -1.7778745e-01 9.09e-12 3.71e-02  -5.7 2.80e-02  -0.0 1.00e+00 1.49e-01f  1
  33 -1.7935358e-01 9.72e-12 6.20e-02  -5.7 1.12e-01  -0.5 1.00e+00 3.54e-02f  1
  34 -1.8382378e-01 5.93e-12 4.74e-02  -5.7 2.98e-02  -0.1 1.00e+00 3.90e-01f  1
  35 -1.8626917e-01 6.57e-12 7.35e-02  -5.7 1.16e-01  -0.5 1.00e+00 6.62e-02f  1
  36 -1.8995260e-01 3.95e-12 4.80e-02  -5.7 3.15e-02  -0.1 1.00e+00 3.99e-01f  1
  37 -1.9273428e-01 4.69e-12 5.51e-02  -5.7 1.18e-01  -0.6 1.00e+00 8.43e-02f  1
  38 -1.9644871e-01 1.16e-11 4.20e-02  -5.7 3.02e-02  -0.2 1.00e+00 5.88e-01f  1
  39 -2.1609472e-01 1.38e-11 2.61e-02  -5.7 1.09e-01  -0.6 1.00e+00 7.92e-01f  1
iter    objective    inf_pr   inf_du lg(mu)  ||d||  lg(rg) alpha_du alpha_pr  ls
  40 -2.1729450e-01 1.11e-11 1.04e-01  -5.7 4.22e-02  -0.2 1.00e+00 3.61e-01f  1
  41 -2.2640957e-01 3.90e-12 3.18e-02  -5.7 9.16e-02  -0.7 1.00e+00 6.50e-01f  1
  42 -2.3313471e-01 2.22e-16 1.96e-02  -5.7 3.62e-02  -0.3 1.00e+00 1.00e+00f  1
  43 -2.4382472e-01 2.22e-16 3.14e-02  -5.7 1.35e-01  -0.7 1.00e+00 4.40e-01f  1
  44 -2.4617902e-01 5.64e-12 5.36e-02  -5.7 2.96e-02  -0.3 1.00e+00 3.79e-01f  1
  45 -2.6253728e-01 1.12e-11 2.89e-02  -5.7 1.44e-01  -0.8 3.88e-01 4.79e-01f  1
  46 -2.6258284e-01 1.12e-11 6.92e-02  -5.7 7.59e-01  -1.3 1.98e-01 6.55e-03f  1
  47 -2.6262202e-01 1.12e-11 7.40e-02  -5.7 1.30e-01  -0.8 4.25e-01 1.03e-03f  1
  48 -2.6261265e-01 1.12e-11 6.25e-02  -5.7 2.51e+01  -1.3 4.31e-03 1.19e-06f 13
  49 -2.6639499e-01 1.17e-11 8.54e-02  -5.7 1.53e-01  -0.9 7.50e-01 8.56e-02f  1
iter    objective    inf_pr   inf_du lg(mu)  ||d||  lg(rg) alpha_du alpha_pr  ls
  50 -2.7199093e-01 1.37e-11 6.82e-02  -5.7 6.08e-02  -0.5 1.00e+00 4.22e-01f  1
  51 -3.4410014e-01 3.54e-11 5.34e-02  -5.7 2.50e-01  -0.9 6.58e-01 5.92e-01f  1
  52 -4.4241735e-01 4.71e-11 1.62e-01  -5.7 1.65e-01  -0.5 3.19e-02 5.90e-01f  1
  53 -4.4350017e-01 4.57e-11 1.77e-01  -5.7 1.20e-01  -0.1 1.08e-01 3.03e-02f  1
  54 -4.4345252e-01 4.57e-11 1.79e-01  -5.7 4.29e+00  -0.6 1.87e-03 1.44e-05h  1
  55 -4.5981257e-01 4.88e-11 1.80e-01  -5.7 1.36e-01  -0.1 1.66e-03 1.29e-01f  1
  56 -4.5980074e-01 4.88e-11 1.80e-01  -5.7 1.51e+00   0.3 1.14e-04 5.26e-05f  5
  57 -4.6193336e-01 4.82e-11 1.54e-01  -5.7 1.88e-01  -0.2 1.27e-01 1.21e-02f  1
  58 -4.8597060e-01 2.36e-11 1.18e-01  -5.7 4.59e-02   0.2 1.67e-01 5.09e-01f  1
  59 -4.9614734e-01 2.32e-11 2.23e-01  -5.7 1.61e-01  -0.2 3.41e-01 1.16e-01f  1
iter    objective    inf_pr   inf_du lg(mu)  ||d||  lg(rg) alpha_du alpha_pr  ls
  60 -5.0354185e-01 2.73e-11 1.65e-01  -5.7 5.56e-02   0.2 5.29e-01 1.97e-01f  1
  61 -5.3425544e-01 4.03e-11 2.66e-01  -5.7 2.26e-01  -0.3 6.13e-01 1.99e-01f  1
  62 -5.5008447e-01 3.96e-11 2.47e-01  -5.7 3.23e+00  -0.8 6.62e-03 1.70e-02f  1
  63 -5.5916358e-01 3.81e-11 2.83e-01  -5.7 3.03e-01  -0.3 1.58e-01 3.74e-02f  1
  64 -5.6077552e-01 3.70e-11 2.75e-01  -5.7 6.86e-02   0.1 3.38e-02 2.82e-02f  1
  65 -5.6451863e-01 3.65e-11 5.26e-01  -5.7 3.65e-01  -0.4 5.65e-01 1.31e-02f  1
  66 -5.7681530e-01 2.75e-11 1.68e-01  -5.7 7.78e-02   0.0 1.00e+00 2.48e-01f  1
  67 -6.5612413e-01 2.31e-11 2.60e-01  -5.7 4.80e-01  -0.5 3.22e-01 1.60e-01f  1
  68 -6.6770266e-01 2.94e-11 2.74e-01  -5.7 1.35e-01  -0.0 5.73e-01 9.83e-02f  1
  69 -6.6769867e-01 2.94e-11 2.23e-01  -5.7 9.41e-01  -0.5 4.82e-02 1.21e-05f 14
iter    objective    inf_pr   inf_du lg(mu)  ||d||  lg(rg) alpha_du alpha_pr  ls
  70 -6.7408386e-01 2.70e-11 2.03e-01  -5.7 8.13e-02  -0.1 8.91e-03 8.11e-02f  1
  71 -6.7483159e-01 2.62e-11 2.32e-01  -5.7 2.62e-02   0.4 4.79e-01 3.05e-02f  1
  72 -6.7876241e-01 2.83e-11 3.39e-01  -5.7 1.05e-01  -0.1 7.18e-01 3.81e-02f  1
  73 -6.7876097e-01 2.83e-11 2.17e-01  -5.7 4.28e-01  -0.6 5.99e-01 3.23e-05f  4
  74 -6.9911296e-01 7.53e-11 1.80e-01  -5.7 1.39e-01  -0.2 1.29e-01 1.75e-01f  1
  75 -6.7476339e-01 4.53e-11 2.65e-01  -5.7 2.36e-01  -0.7 8.18e-01 3.98e-01h  1
  76 -6.7475298e-01 4.51e-11 2.45e-01  -5.7 3.32e-02    -  1.00e+00 3.68e-03f  8
  77 -6.7335344e-01 4.44e-16 2.03e-03  -5.7 3.30e-02    -  1.00e+00 1.00e+00h  1
  78 -6.7335050e-01 3.33e-16 5.44e-06  -5.7 1.74e-03    -  1.00e+00 1.00e+00f  1
  79 -6.7355330e-01 2.22e-16 7.05e-08  -8.6 5.89e-05    -  1.00e+00 1.00e+00f  1
iter    objective    inf_pr   inf_du lg(mu)  ||d||  lg(rg) alpha_du alpha_pr  ls
  80 -6.7355320e-01 2.22e-16 2.31e-08  -8.6 3.91e-08  -0.2 1.00e+00 1.00e+00f  1
  81 -6.7355337e-01 3.33e-16 5.03e-14  -9.0 4.75e-08    -  1.00e+00 1.00e+00f  1

Number of Iterations....: 81

                                   (scaled)                 (unscaled)
Objective...............:  -6.7355336820953071e-01   -6.7355336820953071e-01
Dual infeasibility......:   5.0322247456955404e-14    5.0322247456955404e-14
Constraint violation....:   3.3306690738754696e-16    3.3306690738754696e-16
Complementarity.........:   1.2250461779449886e-09    1.2250461779449886e-09
Overall NLP error.......:   1.2250461779449886e-09    1.2250461779449886e-09


Number of objective function evaluations             = 132
Number of objective gradient evaluations             = 82
Number of equality constraint evaluations            = 132
Number of inequality constraint evaluations          = 0
Number of equality constraint Jacobian evaluations   = 1
Number of inequality constraint Jacobian evaluations = 0
Number of Lagrangian Hessian evaluations             = 81
Total CPU secs in IPOPT (w/o function evaluations)   =      0.340
Total CPU secs in NLP function evaluations           =      5.850

EXIT: Optimal Solution Found.
